************************************************************************
file with basedata            : md104_.bas
initial value random generator: 1848745382
************************************************************************
projects                      :  1
jobs (incl. supersource/sink ):  14
horizon                       :  99
RESOURCES
  - renewable                 :  2   R
  - nonrenewable              :  2   N
  - doubly constrained        :  0   D
************************************************************************
PROJECT INFORMATION:
pronr.  #jobs rel.date duedate tardcost  MPM-Time
    1     12      0       18        0       18
************************************************************************
PRECEDENCE RELATIONS:
jobnr.    #modes  #successors   successors
   1        1          3           2   3   4
   2        3          3           5   9  10
   3        3          3           6   7  12
   4        3          3           5   8  12
   5        3          2          11  13
   6        3          2           8  10
   7        3          2           8  10
   8        3          2           9  11
   9        3          1          13
  10        3          2          11  13
  11        3          1          14
  12        3          1          14
  13        3          1          14
  14        1          0        
************************************************************************
REQUESTS/DURATIONS:
jobnr. mode duration  R 1  R 2  N 1  N 2
------------------------------------------------------------------------
  1      1     0       0    0    0    0
  2      1     3       6    5    9    5
         2     4       5    4    8    2
         3    10       5    4    8    1
  3      1     2       3    7    6    9
         2     3       3    5    6    9
         3     7       3    4    1    9
  4      1     3       7    3    7    8
         2     3       7    2    7   10
         3     5       6    1    4    5
  5      1     4       9    7    1    6
         2     5       5    4    1    5
         3    10       2    3    1    4
  6      1     3      10    6    7    3
         2     3       7    6    8    3
         3     9       2    5    4    3
  7      1     4       8    3    6    9
         2     8       8    3    5    7
         3     9       8    2    5    6
  8      1     1       7    5    7    8
         2     1       6    5    8    7
         3     6       4    2    6    3
  9      1     8       9    5    4    5
         2     8      10    5    5    4
         3     9       8    4    3    4
 10      1     3       5    8    6    7
         2     4       4    8    6    6
         3    10       4    7    5    3
 11      1     4       6    4    4   10
         2     5       5    4    3    6
         3    10       4    3    2    2
 12      1     4       6    2   10    3
         2     7       5    2   10    3
         3     9       3    1   10    3
 13      1     3       9    6    4    8
         2     4       9    6    3    7
         3     5       7    6    2    5
 14      1     0       0    0    0    0
************************************************************************
RESOURCEAVAILABILITIES:
  R 1  R 2  N 1  N 2
   33   22   57   57
************************************************************************
